
 102   30
  10   10   10   10   10   10   10   10   10   10   10   10   10   10   10   10   10   10   10   10   10   10   10   10   10   10   10   10   10   10

   0   0   0   0   0   0   0   0   0   0   0   0   0   0   0   0   0   0   0   0   0   0   0   0   0   0   0   0   0   0   0  28 2 3 4 5 6 7 8 9 10 11 12 13 14 15 16 17 18 19 20 21 22 24 26 29 30 34 39 45 
   4   0   0   0   6   0   0   0   0   0   0   0   0   0   0   0   0   0   0   1   0   0   0   0   0   1   0   0   0   0   0  14 71 70 69 64 61 60 58 54 44 41 40 38 32 27 
   2   0   0   0   0   0   0   0   1   0   0   0   0   0   4   0   0   1   0   5   0   1   0   0   0   0   1   0   2   0   0  18 80 72 71 70 68 65 64 61 59 58 56 54 53 52 48 42 38 23 
   2   0   0   1   0   0   0   1   0   0   1   0   0   0   0   0   0   0   0   0   0   0   0   0   0   0   0   0   0   1   0  12 68 64 63 62 61 56 52 47 46 36 35 25 
   3   1   1   0   4   0   0   0   0   0   0   1   0   0   0   0   0   0   1   0   0   0   0   1   0   4   0   0   0   0   0  15 80 72 71 70 64 63 55 54 52 49 48 43 42 36 31 
  10   0   0   0   0   2   0   0   0   0   8   0   0   0   0   0   0   0   0   8   0   0   0   0   0   0   0   2   6   0   0  12 101 70 68 64 61 54 49 48 38 36 35 28 
   1   9   8   0   0   3   0   8   6   0   0  10   1   0   0   0   0   0   0   0   0   0   0   0   0   0   5   0   0   0   0  14 70 64 61 60 59 57 54 53 52 49 48 44 37 32 
   1   0   0   0   0   0   0   0   2   0   0   0   0   0   0   0   0   0   0   0   0   0   0   0   0   0   0   0   0   0   0  19 101 92 90 82 81 80 72 71 69 68 64 62 61 60 58 57 54 47 33 
   8   0   0   0   5   5   0   4   0   0   0   0   0   0   0   0   4   9   0   0   0   9   0   7   0   6   0   0   0   0   0  16 100 90 85 81 80 70 69 65 63 62 57 54 53 52 38 31 
   7   6   0   2   0   0   0   0   0   1   0   0   0   0   0   0   0   0   0   0   0   0   0   0   0   0   0   0   4   0   0  19 101 86 81 80 70 68 64 63 61 60 59 58 57 56 54 52 51 49 48 
   1   6   0   0   0   0   0   0   0   0   0   0   0   1   0   1   0   0   0   0   0   0   0   0   0   0   0   4   8   0   0  11 81 80 72 71 70 63 59 56 54 42 31 
   3   0   0   2   0   0   0   0   5   0   8   0   0   0   0   0   0   0   0   0   0   0   0   0   2   8   0   0   0   0   0  16 101 90 85 82 81 80 70 69 68 63 59 54 53 51 40 38 
   4   0   4   0   3   9   0   0   6   0   0   0   0   0   0   0   7   7   0   0   0   6   0   0   0   0   0   0   0   0   0  10 101 90 81 71 70 64 60 57 47 31 
   3   8   0   0   0   0   0   0   0   8   0   0   0   0   0   0   5   0   0   0   0   0   0   0   0   0   0  10   0   0   1  24 101 100 99 96 95 94 93 90 89 86 85 83 81 80 79 78 72 70 69 68 56 54 53 51 
   7   0   6   0   8   4   0   0   0   0   0   0   0   0   0   0   0   0   0   0   0   0   0   0   0   7   0   0   4   0   0  22 101 100 92 90 89 88 87 86 84 83 82 81 80 79 71 68 67 66 64 57 53 47 
  10   0   0   0   5   0   0   0   0   0   0   0   0   0   0   5   0   0   0   0   3   0   0   3   0   0   6   0   0   5   0  13 100 88 84 81 72 68 64 57 56 53 50 43 38 
  10   9   0   6   0   0   0   0   0   0   0   0   0   0   0   0   0   0   0   0   0   0   0   0   0   0   0   0   0   0   0  16 101 91 90 88 85 81 70 69 68 64 63 61 59 56 48 47 
   2   0   0   0   0   0   0   0   0   0   0   0   5   0   0   0   0   6   0   0   0   0   1   0   0   0   0   0   0   0   0  13 100 90 82 78 70 69 67 63 56 55 51 48 47 
   9   0   0   0   0   0   0   0   0   3   0   0   0   0   0   0   0   0   0   0   0   0   0   0   0   0   0   0   0   0   0  11 101 82 66 63 62 61 58 51 49 48 47 
   4   0   0  10  10   0   0   0   0   0   0   0   0   6   0   0   0   0   0   6   0   0   0   0   0   0   0   0   0   0   0   9 90 82 71 67 65 63 51 48 38 
   3   0   0   0   0   0   0   0   0   0   0   0   0   0   3   0   4   0   0   0   0   0   3   0   0   0   0  10   0   7   0  21 100 99 98 96 95 94 92 90 89 87 86 85 84 83 82 80 79 78 57 56 54 
  10   2   0   0  10   0   1   5   0   0   0   0   0   0  10   0   0   0   0   0   0   0   0   0   6   0   0   0   0   0   9  23 101 99 97 95 94 93 91 90 89 88 87 86 85 84 83 82 79 78 70 69 68 67 56 
  10   0   0   0   0   0   0   0   0   0   0   6   0   0   0   0   0   0   0   0   0   0   0   0   0   0   0   0   0  10   0  25 101 100 99 98 97 96 95 94 93 92 91 90 89 88 87 86 84 82 81 78 77 76 67 66 63 
   5   8   0   0   0   0   0   0   0   0   0   0   0   0   0   0   0   0   0   0   0   0   0   0  10   0  10   0   0   0   0  20 101 99 97 95 94 93 91 89 87 86 84 83 80 72 69 66 64 63 61 58 
   7   0   4   0   4   0   0   0   0   0   0   0   6   0   0   0   0   0   8   0   0   0   0   0   0   0   6   0   0   0   0  16 101 100 98 96 94 92 91 90 87 85 82 80 77 69 54 48 
   9   0   0   0   0   0   0   0   0   0   0   0   0   0   0   0   6   0   0   0   0   0   0   0   0   0   0   0   0   0   0  18 97 95 94 93 92 91 90 89 87 84 83 72 71 69 68 64 61 56 
  10   5   0   0   0   0   0   0   0   0   5   0   0   0   0   6   0   0   0   0   0   4   0   0   0   0   8   0   0   0   0  17 99 98 96 93 92 90 88 86 85 80 76 75 72 68 67 59 52 
   5   0   0   0   0   7   0   0   0   0   7   0   0   0   0   9   0   0   7   0   0   0   0   0   0   0   0   0   0   0   0  12 92 90 86 83 82 78 71 69 63 57 56 47 
   6   0   0   0   0   0   0   0   0   0   0   6   0   0   4   0   0   0   0   0   0   0   0   0   0   0   0   0   0   0   0  20 100 97 96 95 94 93 90 89 86 81 80 79 78 76 72 69 68 67 66 53 
   2   0   8   0   0   0   0   0   0   4   0   4   0   0   0   0   0   0   0   0   0   0   0   0   0   0   0   0   0   0   0  19 99 98 97 95 92 91 90 86 84 83 82 81 77 75 69 67 66 64 57 
   3   0   0   0   0   0   0   0   0   5   0   0   0   6   4   0   0   0   0   0   0   0   0   0   0   0   0   0   0   0   0  12 95 94 93 86 83 82 78 68 66 61 58 51 
   8   0   0   0   0   8   0   0   0   5   0   4   0   0   0   0   0   0   6   0   0   6   0   0   0   0   0   0   0   0   0  16 100 98 97 95 94 93 92 88 82 81 80 79 78 74 67 51 
   7   0   0   0   0   0   3   0   0   0   0   0   3   0   0   0   0   0   0   0   0   7   7   0   0   0   0   0   7   0   0  14 100 99 98 97 96 95 94 89 86 83 79 67 56 51 
   6   0   0   0   0   0   0   0   0   0   0   0   0   0   0   0   0   0   0   0   0   0   6   0   0   0   0   0   0   0   0  13 100 99 97 95 94 92 86 83 79 78 58 57 56 
   1   6   0   0   0   0   0  10   0   0   0   7   0   0   0   0   0   0   6   0   0   0   0   0   0   0   0   0   5   0   0  17 99 98 95 91 88 87 86 83 80 79 78 77 75 72 71 67 57 
   6   0   0   0   0   0   0   0   0   0   0   0   0   0   8   0   0   0   0   0   0   0   5   0   0   0   0   0   0   0   0  14 100 98 94 93 92 89 86 85 82 81 78 74 67 51 
   4   0   0   0   6   0   8   0   0   0   0   0   0   4   0   0   0   0   0   0   0   9   0   8   0   0   0   0   0   0   0  15 101 99 96 94 93 89 87 86 83 78 77 76 71 66 63 
   2   0   0   0   6   0   0   0   0  10   0   0   0   0   0   0   0   0   0   0   0   5   7   0   6   7   5   0   5   0   0  10 92 89 86 83 79 78 77 76 75 47 
  10   0   0   0   0   0   0   5   0   0   0   0   0   6   0   6   6   0   0   0   5   0   6   0   0   0   0   0   0   0   0   9 100 90 89 79 78 75 67 66 47 
   2   0   0   0   0   0   0   8   0   0   0   0   3   0   0   8   0   8   0   0   0   0   0   0   0   6   0   0   6   0   0  12 100 98 96 95 94 92 91 87 86 78 73 56 
   4   5   0   0   0   0   0   0   0   0   0   0   0   0   0   0   0   0   0   0   0   0   0   0   0   0   0   6   0   0   6  11 101 98 97 96 94 90 85 78 77 63 57 
  10   0   0   0   0   0  10   0   0   0   0   0   0   7   0   0   0   0   0   0   7   0   0   0   1   0   0   0   6   4   0  11 99 92 91 90 84 78 75 69 67 66 57 
   2   0   0   8   0   0   0   0   0   0   0   0   0   0   6   0   0   5   0   0   5   0   0   0   0   0   0   0   0   0   0  12 99 97 96 94 93 86 82 79 78 77 76 74 
   3   0   0   0   0   0   0   0   0   0   0   0   0   0   0   0   0   0   0   0   8   0   0   0   5   0   0   5  10   0   0  10 97 96 88 84 81 78 77 76 75 67 
   2   0   0  10   0   5   0   0   3   0   0   9   0   0   0   0   0   0   0   0   0   0   6   0   6   0   0   6   5   0   0  10 97 96 93 90 84 78 77 76 75 66 
   4   0   0   7   0   0   0   0   0   0   0   0   0   0   0   0   0   0   8   0   0   0   0   0   0   0   6   0   0   0   0   9 96 95 90 85 79 78 77 76 70 
   1   0   0   5   0   0   0   0   0   0   0   0   0   0   0   0   0   0   0   3   0   0   0   0   0   6   0   6   0   0   0   9 99 98 97 96 95 94 93 74 73 
   6   0   0   0   0   0   0   0   0   0   0   0   0   0   0   0   6   0   0   0   0   0   6   0   0   0   0   0   0   0   9   9 99 95 93 89 79 76 75 74 73 
   9   0   0   0   0   0   0   0   0   0   0   0   9   0   6   0   0   0   0   0   0   0   0   0   0   0   0   0   0   0   0   9 95 94 92 90 85 79 77 74 73 
   6   0   0   0   3   0   0   0   0   0   0   0   0   0   0   0  10   0   0   7  10   4   0   0   7   0   0   0  10   0   0   8 98 91 90 85 83 75 74 73 
   8   0   0   0   0   0   0   0   0   0   0   0   0   0   0   0   0   0   0  10   0   0   0   0   0   0   0   0   0   0   0   7 91 87 84 77 76 75 73 
   6   0   0   0   0   0   0   0   0   0   0   0   0   0   0   8   0   0   0   4   0   0   0   0   0   5   0   0   0   0   0   6 97 95 94 78 73 66 
  10   0   0   5   0   7   0   0   0   0   0   5   0   0   0   7   0   0   0   0   0   0   0   0   9   0   0   0   0   0   0   6 98 91 77 75 74 73 
   5   0   0   0   0   0   5   0   9   0   0   0   0   0   0   7   0   0   0   0   6   0   0   0   0   0   6   0   0   6   0   4 97 88 67 66 
   3   6   8   0   0   0   0   6   0   0   0   0   0   8   0   0   0   0   0   0   0   0   0   0   0   0   0   0   5   0   0   5 97 92 88 77 76 
   8   0   0   0   0   0   0   6   0   0   0   0   6   0   0   0   4   0   0   0   0   0   0   0   0   0   0   0   0   0   0   4 77 76 75 66 
   4   0   0   0   0   0   7   0   0   0   6   0   0   0   0   0   0   0   0   0   0   0   0   0   0   0   6   0   0   0   0   4 93 76 74 73 
   3   0   0   0   0   0   0   0   0   0   0   0   0   0   0   0   0   0   3   5   2   0   7   0   0   0   6   5   0   0   0   4 98 96 88 73 
   6   0   0   0   0   0   7   0   0   8   0   0   6  10   0   0   0   0   0   0   0   0   0   9   0   0   0   0   0   0   0   4 95 89 87 79 
   6   0   0   0   4   0   0   0   0   0   0   7   0   0   8   0   0   0   0   0   0   0   0   0   0   0   0   0   0   0   0   4 99 91 89 83 
   9   0   9   0   0   0   0   0   0   0   0   0   0   0   0   0   0   0   0   0   0   0   0   0   0   0   0   0   0   9   0   3 79 76 75 
   4   0   0   0   0   0   0   0   0   0   0   0   0   0   0   0   6   0   0   0   5   0   0   0   6   0   0   0   0   0   0   3 78 77 73 
   9   0   0   0   0   0   0   6   0   0   6   0   0   0   0   0   0   0   0   0   0   0   0   0   0   0   0   0   0   0   0   2 79 75 
   8   0   0   5   0   0   0   0   0   0   0   0   0   0   0   0   0   0   0   0   0   0   0   0   0   0   0   0   0   0   0   2 96 78 
   1   0   0   9   0   0   0   0   0   0   0   0   0   6   0   0   0   0   0   0   0   0   6   0   0   6   0   0   0   0   0   2 94 88 
  10   0   0   0   0   0   0   0   0   0   0   0   8   0   8   0   0   0   0   0   0   0   0   0   5   0   0   0   0   0   0   1 74 
  10   0   0   0   0   0   0   0   0   0   0   0   0   0   0   0   0   0   0   0   0   0   0   0   0   0   0   0   0   0   0   1 73 
  10   0   0   0   0   0   6   0   8   0   0   0   0   0   8   3   0   0   0   0   0   0   0   0   6   0   0   0   4   0   0   1 77 
   5   0   0   0   0   0   0   0   0   0   0   0   0   0   0   0   0   0   0   0   0   0   0   0   0   0   0   0   0   0   6   1 73 
   5   0   0   0   0   6   0   0   0   0   0   0   0   7   0   0   0   0   0   0   0   8   0   0   0   4   0   6   0   0   0   1 92 
   6   0   0   0   0   0   0   0   0   0   0   0   0   0   0   5   0   0   0   0   0   0   0   0   9   0   0   6   0   0   0   1 85 
   3   0   0   0   0   0   0   0   0   0   0   0   0   0   0   8   7   0   0   0   0   0   0   0   4   7   0   0   0   0   0   1 74 
   5   0   0   0   0   0   0   0   0   4   0   0   0   0   0   0   0   0   0   0   7   0   0   0   0   0   0   0   0   0   0   1 102
   5   0   0   0   0   0   0   0   0   0   0   0   0   0   0   0   0   0   0   0   0   0   0   0   0   8   0   0   0   0   0   1 102
   9   0   0   0   0   0   0   0   8   0   6   0   9   0   0   0   0   0   0   0   0   0   0   0   0   0   0   0   7   0   0   1 102
   5   0   0   0   0   0   0   0   0   0   0   0   0   0   0   0   0   0   0   0   0   0   0   0   0   0   0   0   0  10   0   1 102
   2   0   0   0   6   0   0   0   0   8   0   0   0   0   0   0   0   0   0   0   0   0   9   0   0   0   0   0   0   0   0   1 102
   9   0   0   0   0   0   0   0   0   0   0   0   0   0   0   4   7   0   0   5   0   0   0   0   0   8   8   0   0   0   4   1 102
   7   0   0   0   0   0   0   0   0   0   0   4   0   0   0   0   0   0   0   0   0   0   0   0   7   0   0   0   0   0   0   1 102
   8   7   0   0   5   0   0   0   0   0   0   0   0   0   0   0   0   7   0   0   0   0   0   0   0   0   0   0   0   0   0   1 102
   1   0   0   0   0   0   0   0   7   0   0   0   4   0   0   0   0   0   0   0   0   0   0   0   6   0   0   0   0   0   0   1 102
   7   0   0   0   0   0   0   0   0   0   0   0   9   0   0   0   0   5   0  10   0   0   0   0   0   0   0   0   0   3   8   1 102
   4   3   0   0   6   0   0   0   0   0   0   0   0   0   0   0   0   0   0   0   0   0   0   5   0   6   0   0   0   0   0   1 102
   5   0   0   8   0   0   0   0   0   0   0   0   0   0   0   0   0   0   0   0   0   0   0   0   0   0   0   0   0   5   0   1 102
   8   0   0   0   7   0   0   7   0   0   0   0   0   5   0   0   0   0   8   0   0   0   0   0   0   0   0   0   0   0   0   1 102
   1   6   0   0   0   0   0   0   0   0   0   0   0   0   0   0   0   0   0   0   8   0   0   6   0   0   0   0   0   0   0   1 102
  10   0   0   0   9   0   0   0   0   0   0   0   0   0   0   0   0   0   8   0   0   0   0   0   0   0   0   0   0   6   5   1 102
   2   0   0   0   0   0   0   0   9   8   0   0   0   0   0   0   0   0   0   0   0   0   0   0   0   0   0   0   0   0   0   1 102
  10   0   0   0   3  10   0   0   0   0   0   0   0   0   0   0   0   0   0   0   0   0   0   0   0   0   0   0   8   0   8   1 102
   9   0   0   6   0   0   0   6   0   0   0   0   0   0   0   0   0   0   0   0   0   0  10   0   0   7   0   0   0   0   0   1 102
   3   6   0   0  10   0   0   0   0   0   0   0   0   0   0   0   0   0   0   0   0   0   0   0   0   0   0   0   0   0   3   1 102
   4   0   0   0   0   0   0   0   0   9   0   0   6   0   0   0   0   0   0   0   0   0   7   0   0   0   0   0   0   0   0   1 102
   6   9   0   0   0   0   4   0   0   0   0   0   0   0   0   0   0   0   0   6   0   7   0   9   0   6   5   0   0   0   0   1 102
   6   0   0   0   0   0   0   0   7   0   0   0   9   0   0   0   0   0   0   0   0   0   7   0  10   0   0   0   0   0   0   1 102
  10   0   0   0   0   0   0   8   0   0   0   0   0   0   0   0   0   0   0   0   0   0   0   0   0   6   0   0   0   0   0   1 102
   5   0   0   0   0   0   0   0   6   5   7   0   0   0   0   0   0   0   0   0   0   0   0   0   5   0   0   0   0   0   0   1 102
   3   0   0   0   0   0   8   4   5   0   0   0   0   0   0   0   0   0   5   8   0   0   3   0   0   0   0   0   6   0   6   1 102
   7   0   0   0   0   0   0   0   8   0   0   0   0   0   0   0   0   0   0   0   0   0   0   0   0   0   0   0   0   0   0   1 102
   9   0   0   0   0   0   7   0   0   0   0   0   0   0   3   0   0   6   0   0   0   0   0   0   3   0   0   0   0   0   7   1 102
   5   0   0   0   0   0   0   0   0   0   0   0   0   0   0   7   0   0   0   0   0   0   6   0   0   0   0   0   0   0   0   1 102
   7   0   0   0   0   0   0   0   0   0   0   9   0   6   0   0   0   0   0   0   0   0   0   0   7   0   0   0   0   0   0   1 102
   0   0   0   0   0   0   0   0   0   0   0   0   0   0   0   0   0   0   0   0   0   0   0   0   0   0   0   0   0   0   0   0 
